100	5
25	200
10
7
13
19
26
3
5
9
16
16
12
19
23
20
8
19
2
12
17
9
11
18
29
3
6
17
16
16
9
21
27
23
11
14
8
5
8
16
31
9
5
5
7
18
16
1
27
36
30
13
10
9
14
18
2
6
7
18
28
3
13
19
10
9
20
25
25
36
6
5
15
25
9
8
18
13
14
3
23
6
26
16
11
7
41
35
26
9
15
3
1
2
22
27
20
11
12
10
9
17
35	35	0	230	0	0
41	49	73	204	10	1
35	17	18	147	10	1
55	45	76	165	10	1
55	20	73	195	10	1
15	30	20	167	10	3
25	30	49	158	10	3
20	50	36	135	10	1
10	43	50	149	10	3
55	60	47	156	10	2
30	60	85	172	10	3
20	65	33	152	10	1
50	35	15	133	10	2
30	25	79	208	10	3
15	10	32	187	10	1
30	5	30	152	10	3
10	20	29	139	10	2
5	30	60	189	10	2
20	40	47	136	10	2
15	60	32	146	10	1
45	65	79	182	10	1
45	20	18	136	10	2
45	10	50	153	10	3
55	5	36	155	10	2
65	35	58	190	10	2
65	20	56	186	10	1
45	30	87	186	10	1
35	40	5	140	10	3
41	37	6	136	10	1
64	42	29	150	10	1
40	60	25	132	10	1
31	52	17	138	10	2
35	69	67	186	10	2
53	52	24	161	10	3
65	55	70	173	10	2
63	65	54	178	10	1
2	60	41	178	10	1
20	20	87	190	10	2
5	5	42	153	10	2
60	12	33	186	10	2
40	25	40	139	10	1
42	7	43	160	10	2
24	12	25	158	10	1
23	3	82	185	10	1
11	14	31	144	10	2
6	38	29	169	10	3
2	48	63	180	10	1
8	56	34	176	10	3
13	52	65	192	10	1
6	68	73	152	10	3
47	47	75	182	10	3
49	58	36	149	10	3
27	43	11	133	10	2
37	31	51	148	10	3
57	29	90	197	10	1
63	23	69	189	10	3
53	12	76	190	10	2
32	12	48	163	10	2
36	26	84	210	10	1
21	24	17	183	10	1
17	34	70	201	10	2
12	24	29	132	10	1
24	58	25	154	10	1
27	69	34	172	10	2
15	77	46	165	10	2
62	77	49	170	10	2
49	73	68	179	10	2
67	5	43	156	10	2
56	39	80	198	10	1
37	47	12	137	10	3
37	56	48	198	10	3
57	68	39	148	10	1
47	16	22	170	10	3
44	17	30	135	10	1
46	13	74	195	10	1
49	11	27	141	10	1
49	42	27	128	10	2
53	43	72	200	10	3
61	52	42	159	10	1
57	48	47	146	10	2
56	37	73	198	10	2
55	54	57	140	10	1
15	47	23	146	10	3
14	37	21	157	10	3
11	31	57	154	10	2
16	22	44	147	10	3
4	18	49	148	10	3
28	18	61	134	10	3
26	52	21	136	10	2
26	35	68	211	10	2
31	67	46	153	10	1
15	19	70	194	10	2
22	22	18	159	10	1
18	24	60	199	10	1
26	27	58	151	10	1
25	24	14	143	10	1
22	27	89	190	10	1
25	21	92	183	10	1
19	21	21	142	10	1
20	26	33	142	10	1
18	18	51	195	10	1
67	30	0	230	5	4
7	74	0	230	5	4
5	25	0	230	5	4
17	32	0	230	5	4
31	68	0	230	5	4
0	0	0	0	0	
0	0	0	0	0	
0	0	0	0	0	
0	0	0	0	0	
0	0	0	1	0	
0	0	0	1	0	
0	0	0	0	0	
0	0	0	1	0	
0	0	0	0	1	
0	0	0	0	1	
0	0	0	0	0	
1	0	0	0	0	
0	0	0	1	0	
0	0	0	0	0	
0	0	0	1	0	
0	0	1	0	0	
0	0	1	0	0	
0	0	0	1	0	
0	0	0	0	0	
0	0	0	0	0	
1	0	0	0	0	
1	0	0	0	0	
1	0	0	0	0	
1	0	0	0	0	
0	0	0	0	0	
0	0	0	0	0	
0	0	0	1	0	
0	0	0	0	0	
0	0	0	0	0	
0	0	0	0	0	
0	0	0	0	1	
0	0	0	0	1	
1	0	0	0	0	
1	0	0	0	0	
0	0	0	0	0	
0	0	0	0	0	
0	0	0	1	0	
0	0	1	0	0	
1	0	0	0	0	
0	0	0	0	0	
1	0	0	0	0	
0	0	0	0	0	
0	0	0	0	0	
0	0	1	0	0	
0	0	0	1	0	
0	0	0	0	0	
0	1	0	0	0	
0	0	0	0	0	
0	1	0	0	0	
1	0	0	0	0	
0	0	0	0	1	
0	0	0	1	0	
0	0	0	1	0	
0	0	0	0	0	
1	0	0	0	0	
1	0	0	0	0	
0	0	0	1	0	
0	0	0	0	0	
0	0	0	0	0	
0	0	0	1	0	
0	0	0	0	0	
0	0	0	0	0	
0	0	0	0	1	
0	1	0	0	0	
0	0	0	0	1	
0	0	0	0	1	
1	0	0	0	0	
0	0	0	0	0	
0	0	0	0	1	
0	0	0	0	1	
0	0	0	0	0	
1	0	0	0	0	
0	0	0	0	0	
0	0	0	0	0	
0	0	0	0	0	
1	0	0	0	0	
1	0	0	0	0	
0	0	0	0	0	
1	0	0	0	0	
1	0	0	0	0	
0	0	0	0	0	
0	0	0	1	0	
0	0	0	1	0	
0	0	0	1	0	
0	0	0	1	0	
0	0	1	0	0	
0	0	0	1	0	
0	0	0	0	1	
0	0	0	1	0	
0	0	0	0	0	
0	0	1	0	0	
0	0	0	0	0	
0	0	0	0	0	
0	0	0	0	0	
0	0	0	0	0	
0	0	0	0	0	
0	0	0	0	0	
0	0	0	0	0	
0	0	0	0	0	
0	0	0	0	0	
